NAME : 26.78858.tour
COMMENT : Length = 78858
COMMENT : Found by LKH-3 [Keld Helsgaun] Thu Jun 19 18:16:44 2025
TYPE : TOUR
DIMENSION : 100
TOUR_SECTION
1
20
83
39
78
33
21
88
51
64
87
55
32
4
85
11
96
3
45
56
95
42
49
54
46
7
9
62
94
91
2
84
12
100
27
76
81
98
67
93
31
58
41
65
17
28
60
19
40
63
77
89
80
18
57
36
99
24
16
47
13
34
82
22
92
44
23
37
6
43
38
97
52
5
74
72
90
10
68
15
53
50
26
86
48
75
8
66
14
35
79
29
61
70
25
69
71
30
73
59
-1
EOF
